
Value of objective function: 0.03182229

Actual values of the variables:
pL1_div_from_law        0.0318223
comp_pos0                       0
comp_neg0                       0
comp_pos1                       0
comp_neg1                       0
comp_pos2                       0
comp_neg2                       0
comp_pos3                       0
comp_neg3                       0
comp_pos4                       0
comp_neg4                       0
comp_pos5                       0
comp_neg5                       0
comp_pos6               0.0318223
comp_neg6                       0
comp_pos7                       0
comp_neg7                       0
comp_pos8                       0
comp_neg8                       0
comp_pos9                       0
comp_neg9                       0
comp_pos10                      0
comp_neg10                      0
comp_pos11                      0
comp_neg11                      0
comp_pos12                      0
comp_neg12                      0
comp_pos13                      0
comp_neg13                      0
z_c0_t0               1.32138e+10
p0_c0_t0              2.18568e+09
p1_c0_t0              2.36769e+09
p2_c0_t0              8.27175e+09
p3_c0_t0              3.88715e+08
diff0                           0
normdiff0                       0
z_c0_t1               1.47752e+10
p0_c0_t1              1.89924e+09
p1_c0_t1              2.65517e+09
p2_c0_t1               9.7391e+09
p3_c0_t1              4.81688e+08
diff1                           0
normdiff1                       0
z_c1_t0               1.65566e+10
p0_c1_t0              2.20988e+09
p1_c1_t0               3.0727e+09
p2_c1_t0              1.11037e+10
p3_c1_t0              1.70339e+08
diff2                           0
normdiff2                       0
z_c1_t1               1.94959e+10
p0_c1_t1              2.24939e+09
p1_c1_t1              4.37131e+09
p2_c1_t1              1.27031e+10
p3_c1_t1               1.7207e+08
diff3                           0
normdiff3                       0
z_c2_t0               7.24754e+09
p0_c2_t0              7.53987e+08
p1_c2_t0              1.24145e+09
p2_c2_t0              5.10153e+09
p3_c2_t0              1.50576e+08
diff4                           0
normdiff4                       0
z_c2_t1               7.97123e+09
p0_c2_t1               6.1208e+08
p1_c2_t1              1.45109e+09
p2_c2_t1              5.72143e+09
p3_c2_t1              1.86625e+08
diff5                           0
normdiff5                       0
z_c3_t0               1.22612e+10
p0_c3_t0              1.36414e+09
p1_c3_t0               2.1224e+09
p2_c3_t0              8.76661e+09
p3_c3_t0              3.98211e+08
diff6                 3.90179e+08
normdiff6               0.0318223
z_c3_t1               1.42798e+10
p0_c3_t1              1.55841e+09
p1_c3_t1               2.1736e+09
p2_c3_t1              9.74236e+09
p3_c3_t1              8.05413e+08
diff7                           0
normdiff7                       0
z_c4_t0               7.97197e+09
p0_c4_t0              6.02098e+08
p1_c4_t0              2.39874e+09
p2_c4_t0              4.85025e+09
p3_c4_t0              1.20886e+08
diff8                           0
normdiff8                       0
z_c4_t1                8.9819e+09
p0_c4_t1              6.22595e+08
p1_c4_t1              2.20837e+09
p2_c4_t1              6.07131e+09
p3_c4_t1              7.96214e+07
diff9                           0
normdiff9                       0
z_c5_t0               1.00642e+10
p0_c5_t0              1.06178e+09
p1_c5_t0              1.98411e+09
p2_c5_t0              6.96795e+09
p3_c5_t0              5.03208e+07
diff10                          0
normdiff10                      0
z_c5_t1                1.2016e+10
p0_c5_t1              7.75681e+08
p1_c5_t1              1.98496e+09
p2_c5_t1               9.0457e+09
p3_c5_t1               2.0967e+08
diff11                          0
normdiff11                      0
z_c6_t0               1.81204e+10
p0_c6_t0              1.93872e+09
p1_c6_t0              2.53166e+09
p2_c6_t0              1.34857e+10
p3_c6_t0              1.64267e+08
diff12                          0
normdiff12                      0
z_c6_t1               2.06345e+10
p0_c6_t1              2.08465e+09
p1_c6_t1              2.32047e+09
p2_c6_t1              1.61181e+10
p3_c6_t1              1.11308e+08
diff13                          0
normdiff13                      0
